
#######################################################################
#
#                 Cambridge Crystallographic Data Centre
#                                CCDC
#
#######################################################################
#
# If this CIF has been generated from an entry in the Cambridge
# Structural Database, then it will include bibliographic, chemical,
# crystal, experimental, refinement or atomic coordinate data resulting
# from the CCDC's data processing and validation procedures.
#
#######################################################################

data_CSD_CIF_GARRAT
_audit_creation_date 2005-12-08
_audit_creation_method CSD-ConQuest-V1
_database_code_CSD GARRAT
_database_code_depnum_ccdc_archive 'CCDC 239863'
_chemical_formula_sum 'C36 H46 Cu1 N4 Na2 O23'
_chemical_formula_moiety
;
C36 H44 N1 Na2 O13 1+,H2 Cu1 N3 O10 1-
;
_journal_coden_Cambridge 211
_journal_volume 58
_journal_year 2005
_journal_page_first 1127
_journal_name_full 'J.Coord.Chem. '
loop_
_publ_author_name
"Xike Gao"
"Jianmin Dou"
"Dacheng Li"
"Fengying Dong"
"Daqi Wang"
_chemical_name_systematic
;
(\m~2~-nitrato)-bis(2,3-naphtho-15-crown-5)-di-sodium aqua-trinitrato-copper
;
_cell_volume   2234.283
_exptl_crystal_colour 'blue'
_exptl_crystal_density_diffrn 1.505
_exptl_crystal_description 'lamellar'
_exptl_crystal_preparation 'diethyl ether/1,2-dichloroethane'
_diffrn_ambient_temperature 298
#These two values have been output from a single CSD field.
_refine_ls_R_factor_gt 0.0467
_refine_ls_wR_factor_gt 0.0467
_symmetry_cell_setting triclinic
_symmetry_space_group_name_H-M 'P -1'
_symmetry_Int_Tables_number 2
loop_
_symmetry_equiv_pos_site_id
_symmetry_equiv_pos_as_xyz
1 x,y,z
2 -x,-y,-z
_cell_length_a 11.233(6)
_cell_length_b 13.342(7)
_cell_length_c 16.601(8)
_cell_angle_alpha 89.836(7)
_cell_angle_beta 79.132(8)
_cell_angle_gamma 66.545(7)
_cell_formula_units_Z 2
loop_
_atom_type_symbol
_atom_type_radius_bond
C 0.68
H 0.23
Cu 1.42
N 0.66
Na 1.47
O 0.71
loop_
_atom_site_label
_atom_site_type_symbol
_atom_site_fract_x
_atom_site_fract_y
_atom_site_fract_z
Cu1 Cu 0.43027(5) 0.04456(4) 0.69453(3)
Na1 Na 0.54544(14) 0.28575(11) 0.81898(8)
Na2 Na 0.83233(13) 0.30125(11) 0.47561(8)
N1 N 0.3201(3) 0.2547(3) 0.7504(2)
N2 N 0.4630(4) -0.0923(3) 0.5744(2)
N3 N 0.3523(5) -0.0528(3) 0.8161(2)
N4 N 0.6684(3) 0.2705(3) 0.61725(19)
O1 O 0.4636(2) 0.49236(18) 0.84556(13)
O2 O 0.3912(2) 0.37053(18) 0.94808(14)
O3 O 0.5534(3) 0.1554(2) 0.92387(18)
O4 O 0.7698(3) 0.1281(3) 0.8002(2)
O5 O 0.7212(2) 0.3461(2) 0.83047(16)
O6 O 0.7909(2) 0.48819(17) 0.49410(14)
O7 O 0.9961(2) 0.33713(17) 0.52486(14)
O8 O 1.0280(3) 0.13870(19) 0.46237(16)
O9 O 0.8628(3) 0.1992(3) 0.35194(16)
O10 O 0.6695(3) 0.4068(2) 0.40261(15)
O11 O 0.4058(2) 0.1697(2) 0.77243(15)
O12 O 0.2962(3) 0.3438(2) 0.78416(19)
O13 O 0.2701(3) 0.2418(2) 0.6947(2)
O14 O 0.3852(4) -0.0061(3) 0.5643(3)
O15 O 0.5099(4) -0.1077(3) 0.6338(2)
O16 O 0.5069(5) -0.1679(3) 0.5182(2)
O17 O 0.2923(3) 0.0097(2) 0.76332(19)
O18 O 0.4662(4) -0.0655(3) 0.8164(2)
O19 O 0.2881(5) -0.0926(3) 0.8627(2)
O20 O 0.5914(3) 0.2532(2) 0.67527(15)
O21 O 0.6934(3) 0.3505(3) 0.61978(18)
O22 O 0.7138(4) 0.2077(3) 0.5550(2)
O23 O 0.5759(3) 0.0679(2) 0.62852(18)
C1 C 0.3428(3) 0.5433(3) 0.89905(18)
C2 C 0.2663(3) 0.6519(3) 0.9017(2)
H1 H 0.29680 0.69570 0.86760
C3 C 0.1409(3) 0.6999(3) 0.9554(2)
C4 C 0.0605(4) 0.8131(3) 0.9613(2)
H2 H 0.08920 0.85890 0.92850
C5 C -0.0590(4) 0.8559(4) 1.0149(3)
H3 H -0.11070 0.93080 1.01840
C6 C -0.1042(4) 0.7898(4) 1.0638(3)
H4 H -0.18610 0.82020 1.09980
C7 C -0.0296(4) 0.6803(4) 1.0597(2)
H5 H -0.06180 0.63640 1.09270
C8 C 0.0963(3) 0.6316(3) 1.0060(2)
C9 C 0.1773(3) 0.5191(3) 1.0031(2)
H6 H 0.14750 0.47390 1.03610
C10 C 0.2990(3) 0.4761(3) 0.95216(19)
C11 C 0.3608(4) 0.2964(3) 1.0009(3)
H7 H 0.30140 0.27130 0.98010
H8 H 0.31800 0.33200 1.05570
C12 C 0.4885(5) 0.2017(3) 1.0033(3)
H9 H 0.54440 0.22650 1.02840
H10 H 0.47100 0.14720 1.03640
C13 C 0.6781(6) 0.0666(4) 0.9217(3)
H11 H 0.66410 0.00330 0.94240
H12 H 0.72620 0.08670 0.95690
C14 C 0.7550(6) 0.0390(4) 0.8392(4)
H13 H 0.84220 -0.01680 0.84030
H14 H 0.71300 0.00770 0.80670
C15 C 0.8658(5) 0.1605(4) 0.8223(3)
H15 H 0.95430 0.10660 0.79910
H16 H 0.85520 0.16620 0.88170
C16 C 0.8476(4) 0.2674(4) 0.7902(3)
H17 H 0.91670 0.28870 0.80060
H18 H 0.85250 0.26290 0.73130
C17 C 0.6921(4) 0.4531(3) 0.8070(3)
H19 H 0.68770 0.45560 0.74920
H20 H 0.76130 0.47580 0.81520
C18 C 0.5624(4) 0.5282(3) 0.8579(3)
H21 H 0.56760 0.52770 0.91560
H22 H 0.54020 0.60250 0.84200
C19 C 0.8286(3) 0.5128(3) 0.5625(2)
C20 C 0.7652(3) 0.6064(3) 0.6130(2)
H23 H 0.68690 0.66000 0.60310
C21 C 0.8173(3) 0.6230(3) 0.6807(2)
C22 C 0.7545(4) 0.7191(3) 0.7345(3)
H24 H 0.67570 0.77360 0.72620
C23 C 0.8073(5) 0.7329(4) 0.7980(3)
H25 H 0.76460 0.79700 0.83260
C24 C 0.9241(5) 0.6531(4) 0.8125(3)
H26 H 0.95980 0.66400 0.85620
C25 C 0.9864(4) 0.5586(3) 0.7626(2)
H27 H 1.06440 0.50500 0.77290
C26 C 0.9352(3) 0.5404(3) 0.6958(2)
C27 C 0.9968(3) 0.4425(3) 0.6435(2)
H28 H 1.07360 0.38700 0.65370
C28 C 0.9457(3) 0.4282(3) 0.5790(2)
C29 C 1.1006(4) 0.2406(3) 0.5428(2)
H29 H 1.07000 0.21330 0.59330
H30 H 1.17550 0.25650 0.54920
C30 C 1.1395(4) 0.1579(3) 0.4720(3)
H31 H 1.17320 0.18460 0.42220
H32 H 1.20910 0.09010 0.48190
C31 C 1.0512(5) 0.0693(4) 0.3906(3)
H33 H 1.09410 -0.00700 0.40150
H34 H 1.10900 0.08440 0.34560
C32 C 0.9248(6) 0.0894(4) 0.3681(3)
H35 H 0.93940 0.04220 0.31970
H36 H 0.86810 0.07250 0.41270
C33 C 0.7374(6) 0.2348(5) 0.3331(3)
H37 H 0.67900 0.21690 0.37600
H38 H 0.74350 0.19680 0.28180
C34 C 0.6820(5) 0.3519(5) 0.3257(3)
H39 H 0.73960 0.37040 0.28270
H40 H 0.59580 0.37460 0.31120
C35 C 0.6587(4) 0.5151(3) 0.3960(3)
H41 H 0.57550 0.56010 0.38070
H42 H 0.73060 0.51650 0.35370
C36 C 0.6649(4) 0.5590(3) 0.4767(2)
H43 H 0.65820 0.63370 0.47380
H44 H 0.59300 0.55840 0.51930
H45 H 0.521(3) 0.101(2) 0.5935(19)
H46 H 0.599(3) 0.120(2) 0.648(2)
#END
