
#######################################################################
#
#                 Cambridge Crystallographic Data Centre
#                                CCDC
#
#######################################################################
#
# If this CIF has been generated from an entry in the Cambridge
# Structural Database, then it will include bibliographic, chemical,
# crystal, experimental, refinement or atomic coordinate data resulting
# from the CCDC's data processing and validation procedures.
#
#######################################################################

data_CSD_CIF_LOKXUG
_audit_creation_date 2014-07-28
_audit_creation_method CSD-ConQuest-V1
_database_code_CSD LOKXUG
_database_code_depnum_ccdc_archive 'CCDC 772996'
_chemical_formula_sum 'C30 H52 B2 Fe1 N4'
_chemical_formula_moiety
;
C30 H52 B2 Fe1 N4
;
_journal_coden_Cambridge 29
_journal_volume 636
_journal_year 2010
_journal_page_first 2329
_journal_name_full 'Z.Anorg.Allg.Chem. '
loop_
_publ_author_name
"A.Appel"
"H.Noth"
_chemical_name_systematic
;
1,1'-bis(1,3-Di-t-butyl-1,3,2-diazaborolidinyl)ferrocene
;
_cell_volume   1503.090
_exptl_crystal_colour 'red'
_exptl_crystal_density_diffrn 1.207
_exptl_crystal_description 'needles'
_diffrn_ambient_temperature 293
#These two values have been output from a single CSD field.
_refine_ls_R_factor_gt 0.0715
_refine_ls_wR_factor_gt 0.0715
_symmetry_cell_setting triclinic
_symmetry_space_group_name_H-M 'P -1'
_symmetry_Int_Tables_number 2
loop_
_symmetry_equiv_pos_site_id
_symmetry_equiv_pos_as_xyz
1 x,y,z
2 -x,-y,-z
_cell_length_a 10.761(10)
_cell_length_b 12.090(12)
_cell_length_c 13.454(13)
_cell_angle_alpha 109.44(1)
_cell_angle_beta 91.22(2)
_cell_angle_gamma 112.460(46)
_cell_formula_units_Z 2
loop_
_atom_type_symbol
_atom_type_radius_bond
C 0.68
H 0.23
B 0.83
Fe 1.52
N 0.68
loop_
_atom_site_label
_atom_site_type_symbol
_atom_site_fract_x
_atom_site_fract_y
_atom_site_fract_z
Fe1 Fe 0.02846(5) 0.30829(5) 0.10095(4)
B1 B 0.3282(4) 0.5482(4) 0.2732(4)
B2 B -0.1374(4) 0.0918(4) 0.2341(3)
N1 N 0.4618(4) 0.5547(3) 0.3014(3)
N2 N 0.3056(4) 0.6403(4) 0.3619(3)
N3 N -0.2726(3) 0.0013(3) 0.2310(3)
N4 N -0.0428(3) 0.0741(3) 0.2972(3)
C1 C 0.2341(3) 0.4481(3) 0.1607(2)
C2 C 0.2223(3) 0.3193(3) 0.1172(2)
H1 H 0.2536(46) 0.2764(45) 0.1466(36)
C3 C 0.1616(4) 0.2606(4) 0.0082(3)
H2 H 0.1471(4) 0.1758(4) -0.0394(3)
C4 C 0.1288(4) 0.3515(5) -0.0174(3)
H3 H 0.0852(4) 0.3379(5) -0.0860(3)
C5 C 0.1710(4) 0.4652(4) 0.0754(3)
H4 H 0.1596(4) 0.5416(4) 0.0801(3)
C6 C -0.1140(4) 0.1856(4) 0.1698(3)
C7 C -0.1435(4) 0.1386(4) 0.0549(3)
H5 H -0.1502(4) 0.0561(4) 0.0082(3)
C8 C -0.1658(4) 0.2308(5) 0.0225(4)
H6 H -0.1920(4) 0.2212(5) -0.0496(4)
C9 C -0.1446(4) 0.3386(4) 0.1157(4)
H7 H -0.1535(4) 0.4157(4) 0.1189(4)
C10 C -0.1112(4) 0.3114(4) 0.2047(3)
H8 H -0.0981(4) 0.3608(4) 0.2721(3)
C11 C 0.5037(7) 0.6233(7) 0.4168(4)
H9 H 0.5990(7) 0.6800(7) 0.4337(4)
H10 H 0.4880(7) 0.5633(7) 0.4523(4)
C12 C 0.4199(6) 0.6958(6) 0.4500(4)
H11 H 0.3869(6) 0.6890(6) 0.5143(4)
H12 H 0.4724(6) 0.7851(6) 0.4624(4)
C13 C 0.1948(4) 0.6826(4) 0.3866(3)
C14 C 0.1067(6) 0.6095(6) 0.4515(5)
H13 H 0.0725(32) 0.5185(6) 0.4118(14)
H14 H 0.0316(22) 0.6335(28) 0.4652(26)
H15 H 0.1609(12) 0.6307(28) 0.5182(14)
C15 C 0.2531(6) 0.8267(5) 0.4526(4)
H16 H 0.3141(29) 0.8729(6) 0.4150(14)
H17 H 0.3018(31) 0.8437(7) 0.5204(12)
H18 H 0.1800(7) 0.8540(8) 0.4639(25)
C16 C 0.1080(5) 0.6593(5) 0.2845(4)
H19 H 0.1629(9) 0.7108(23) 0.2475(13)
H20 H 0.0332(19) 0.6827(29) 0.3024(4)
H21 H 0.0733(26) 0.5699(7) 0.2394(12)
C17 C 0.5577(4) 0.5054(4) 0.2430(3)
C18 C 0.7070(5) 0.6004(5) 0.2936(5)
H22 H 0.7257(11) 0.6027(24) 0.3646(10)
H23 H 0.7205(10) 0.6848(8) 0.2969(24)
H24 H 0.7674(5) 0.5725(18) 0.2509(15)
C19 C 0.5395(5) 0.4963(5) 0.1270(4)
H25 H 0.4478(10) 0.4376(23) 0.0921(8)
H26 H 0.6024(22) 0.4657(28) 0.0903(8)
H27 H 0.557(3) 0.5799(7) 0.1259(4)
C20 C 0.5394(5) 0.3770(5) 0.2496(5)
H28 H 0.4512(14) 0.3125(8) 0.2114(22)
H29 H 0.5468(32) 0.3851(9) 0.3232(5)
H30 H 0.6088(20) 0.3524(16) 0.2184(23)
C21 C -0.2628(5) -0.0834(5) 0.2854(4)
H31 H -0.3084(5) -0.1720(5) 0.2384(4)
H32 H -0.3042(5) -0.0709(5) 0.3484(4)
C22 C -0.1136(5) -0.0454(5) 0.3147(4)
H33 H -0.0912(5) -0.0334(5) 0.3880(4)
H34 H -0.0882(5) -0.1111(5) 0.2700(4)
C23 C 0.1075(4) 0.1291(4) 0.3143(3)
C24 C 0.1632(6) 0.0979(6) 0.4031(5)
H35 H 0.1270(31) 0.1264(33) 0.4667(10)
H36 H 0.2609(6) 0.1413(30) 0.4181(22)
H37 H 0.1363(33) 0.0067(7) 0.3800(13)
C25 C 0.1531(5) 0.0696(5) 0.2107(4)
H38 H 0.1164(28) 0.0857(27) 0.1540(7)
H39 H 0.1208(28) -0.0216(6) 0.1930(14)
H40 H 0.2510(5) 0.1074(23) 0.2201(9)
C26 C 0.1623(4) 0.2750(4) 0.3518(3)
H41 H 0.1243(4) 0.3119(4) 0.3078(3)
H42 H 0.1237(4) 0.3114(4) 0.4244(3)
H43 H 0.2452(4) 0.3113(4) 0.3581(3)
C27 C -0.4115(4) -0.0328(4) 0.1788(4)
C28 C -0.5172(5) -0.0852(6) 0.2447(5)
H44 H -0.4931(20) -0.0244(16) 0.3170(8)
H45 H -0.5191(26) -0.1654(18) 0.2443(24)
H46 H -0.6057(8) -0.0988(33) 0.2142(17)
C29 C -0.4426(6) -0.1352(6) 0.0675(4)
H47 H -0.3817(26) -0.1003(12) 0.0239(10)
H48 H -0.5351(13) -0.1619(27) 0.0358(13)
H49 H -0.4306(37) -0.2079(16) 0.0726(5)
C30 C -0.4257(5) 0.0845(5) 0.1738(5)
H50 H -0.3979(34) 0.1505(13) 0.2440(7)
H51 H -0.5191(8) 0.0624(9) 0.1479(27)
H52 H -0.3690(28) 0.1155(21) 0.1263(22)
#END
