
#######################################################################
#
#                 Cambridge Crystallographic Data Centre
#                                CCDC
#
#######################################################################
#
# If this CIF has been generated from an entry in the Cambridge
# Structural Database, then it will include bibliographic, chemical,
# crystal, experimental, refinement or atomic coordinate data resulting
# from the CCDC's data processing and validation procedures.
#
#######################################################################

data_CSD_CIF_ROKQAM
_audit_creation_date 2019-08-14
_audit_creation_method CSD-ConQuest-V1
_database_code_CSD ROKQAM
_database_code_depnum_ccdc_archive 'CCDC 1876288'
_chemical_formula_sum 'C44 H40 Cu1 N6 O2'
_chemical_formula_moiety
;
C44 H40 Cu1 N6 O2
;
_journal_coden_Cambridge 603
_journal_volume 38
_journal_year 2019
_journal_page_first 1283
_journal_name_full 'Jiegou Huaxue(Chin.)(Chin.J.Struct.Chem.) '
loop_
_publ_author_name
"Qi Zhou"
"Zhi-Jiao Zhang"
"Fan-Fan Wang"
"Li Han"
"Cheng-Ben Zhu"
"Hai-Pu Li"
"Ying Yang"
_chemical_name_systematic
;
bis{N-[N'-(2,6-dimethylphenyl)-N-phenylcarbamimidoyl]benzenecarboximidato}-cop
per(ii)
;
_cell_volume   1921.095
_exptl_crystal_colour 'blue'
_exptl_crystal_density_diffrn 1.294
_exptl_crystal_description 'block'
_diffrn_ambient_temperature 296
#These two values have been output from a single CSD field.
_refine_ls_R_factor_gt 0.0334
_refine_ls_wR_factor_gt 0.0334
_symmetry_cell_setting monoclinic
_symmetry_space_group_name_H-M 'P 21/c'
_symmetry_Int_Tables_number 14
loop_
_symmetry_equiv_pos_site_id
_symmetry_equiv_pos_as_xyz
1 x,y,z
2 -x,1/2+y,1/2-z
3 -x,-y,-z
4 x,-1/2-y,-1/2+z
_cell_length_a 10.2957(2)
_cell_length_b 13.3866(3)
_cell_length_c 13.9411(3)
_cell_angle_alpha 90
_cell_angle_beta 91.061(1)
_cell_angle_gamma 90
_cell_formula_units_Z 2
loop_
_atom_type_symbol
_atom_type_radius_bond
C 0.68
H 0.23
Cu 1.32
N 0.68
O 0.68
loop_
_atom_site_label
_atom_site_type_symbol
_atom_site_fract_x
_atom_site_fract_y
_atom_site_fract_z
Cu1 Cu 0.50000 0.00000 0.00000
N1 N 0.64455(13) 0.06530(11) 0.06957(9)
N2 N 0.78170(13) 0.08815(11) -0.06581(9)
N3 N 0.84683(15) 0.14038(14) 0.08268(10)
H1 H 0.83090 0.14610 0.14280
O1 O 0.58832(13) 0.01529(11) -0.11741(9)
C1 C 0.75194(16) 0.09639(13) 0.02816(11)
C2 C 0.70210(15) 0.04926(12) -0.12891(11)
C3 C 0.75126(16) 0.04435(13) -0.22923(11)
C4 C 0.67583(18) 0.00011(13) -0.30066(12)
H2 H 0.59560 -0.02730 -0.28600
C5 C 0.7197(2) -0.00336(14) -0.39408(13)
H3 H 0.66860 -0.03280 -0.44200
C6 C 0.8385(2) 0.03653(16) -0.41612(13)
H4 H 0.86750 0.03410 -0.47890
C7 C 0.9144(2) 0.07992(17) -0.34569(14)
H5 H 0.99500 0.10640 -0.36070
C8 C 0.87111(18) 0.08438(15) -0.25209(13)
H6 H 0.92250 0.11420 -0.20460
C9 C 0.63831(15) 0.08309(14) 0.17162(11)
C10 C 0.68137(19) 0.00817(15) 0.23444(13)
C11 C 0.6791(2) 0.0282(2) 0.33264(14)
H7 H 0.70750 -0.02030 0.37600
C12 C 0.6357(2) 0.1182(2) 0.36612(14)
H8 H 0.63520 0.13030 0.43180
C13 C 0.5927(2) 0.19064(18) 0.30332(15)
H9 H 0.56310 0.25130 0.32710
C14 C 0.59289(17) 0.17456(14) 0.20415(13)
C15 C 0.5510(2) 0.25390(17) 0.13560(16)
H10 H 0.62610 0.28440 0.10820
H11 H 0.50190 0.30360 0.16890
H12 H 0.49800 0.22500 0.08550
C16 C 0.7300(3) -0.08977(19) 0.19829(16)
H13 H 0.66110 -0.12370 0.16430
H14 H 0.75910 -0.13000 0.25150
H15 H 0.80090 -0.07850 0.15590
C17 C 0.96838(17) 0.17793(14) 0.05334(13)
C18 C 0.98194(19) 0.23571(15) -0.02795(14)
H16 H 0.91060 0.24920 -0.06780
C19 C 1.1031(2) 0.27327(16) -0.04928(16)
H17 H 1.11350 0.31100 -0.10460
C20 C 1.2080(2) 0.25552(18) 0.0100(2)
H18 H 1.28900 0.28140 -0.00500
C21 C 1.1939(2) 0.19968(18) 0.0914(2)
H19 H 1.26500 0.18800 0.13200
C22 C 1.07343(19) 0.16060(16) 0.11308(16)
H20 H 1.06370 0.12250 0.16830
N1B N 0.35545(13) -0.06530(11) -0.06957(9)
N2B N 0.21830(13) -0.08815(11) 0.06581(9)
N3B N 0.15317(15) -0.14038(14) -0.08268(10)
H1B H 0.16910 -0.14610 -0.14280
O1B O 0.41168(13) -0.01529(11) 0.11741(9)
C1B C 0.24806(16) -0.09639(13) -0.02816(11)
C2B C 0.29790(15) -0.04926(12) 0.12891(11)
C3B C 0.24874(16) -0.04435(13) 0.22923(11)
C4B C 0.32417(18) -0.00011(13) 0.30066(12)
H2B H 0.40440 0.02730 0.28600
C5B C 0.2803(2) 0.00336(14) 0.39408(13)
H3B H 0.33140 0.03280 0.44200
C6B C 0.1615(2) -0.03653(16) 0.41612(13)
H4B H 0.13250 -0.03410 0.47890
C7B C 0.0856(2) -0.07992(17) 0.34569(14)
H5B H 0.00500 -0.10640 0.36070
C8B C 0.12889(18) -0.08438(15) 0.25209(13)
H6B H 0.07750 -0.11420 0.20460
C9B C 0.36169(15) -0.08309(14) -0.17162(11)
C10B C 0.31863(19) -0.00817(15) -0.23444(13)
C11B C 0.3209(2) -0.0282(2) -0.33264(14)
H7B H 0.29250 0.02030 -0.37600
C12B C 0.3643(2) -0.1182(2) -0.36612(14)
H8B H 0.36480 -0.13030 -0.43180
C13B C 0.4073(2) -0.19064(18) -0.30332(15)
H9B H 0.43690 -0.25130 -0.32710
C14B C 0.40711(17) -0.17456(14) -0.20415(13)
C15B C 0.4490(2) -0.25390(17) -0.13560(16)
H10B H 0.37390 -0.28440 -0.10820
H11B H 0.49810 -0.30360 -0.16890
H12B H 0.50200 -0.22500 -0.08550
C16B C 0.2700(3) 0.08977(19) -0.19829(16)
H13B H 0.33890 0.12370 -0.16430
H14B H 0.24090 0.13000 -0.25150
H15B H 0.19910 0.07850 -0.15590
C17B C 0.03162(17) -0.17793(14) -0.05334(13)
C18B C 0.01806(19) -0.23571(15) 0.02795(14)
H16B H 0.08940 -0.24920 0.06780
C19B C -0.1031(2) -0.27327(16) 0.04928(16)
H17B H -0.11350 -0.31100 0.10460
C20B C -0.2080(2) -0.25552(18) -0.0100(2)
H18B H -0.28900 -0.28140 0.00500
C21B C -0.1939(2) -0.19968(18) -0.0914(2)
H19B H -0.26500 -0.18800 -0.13200
C22B C -0.07343(19) -0.16060(16) -0.11308(16)
H20B H -0.06370 -0.12250 -0.16830
#END
